num_features = 18;
num_usage_limits = 0;
num_plans = 3;
num_addons = 0;

features = ["documents","spreadsheets","slides","basicLiveApps","groupChat","1to1messages","desktopAccess","tabletAccess","mobileAccess","teamManagement","secureProductivity","customAndAdvancedLiveApps","singleSignOn","enterpriseAPI","quipComponent","spreadsheetsWithLiveSalesforceData","salesforceRecordLiveApp","embedQuipDocumentComponentsInAllObjects"];
usage_limits = [];
plans = ["STARTER","ENTERPRISE","CUSTOMER360"];
addons = [];

plans_prices = [12,25,250];
addons_prices = [];

linked_features = array2d(USAGE_LIMITS, FEATURES, [
]);

plans_features = array2d(PLANS, FEATURES, [
    % STARTER
    1,1,1,1,1,1,1,1,1,1,1,0,0,0,0,0,0,0,
    % ENTERPRISE
    1,1,1,1,1,1,1,1,1,1,1,1,1,1,0,0,0,0,
    % CUSTOMER360
    1,1,1,1,1,1,1,1,1,1,1,1,1,1,1,1,1,1
]);
plans_usage_limits = array2d(PLANS, USAGE_LIMITS, [
]);

addons_features = array2d(ADDONS, FEATURES, [
]);
addons_usage_limits = array2d(ADDONS, USAGE_LIMITS, [
]);
addons_usage_limits_extensions = array2d(ADDONS, USAGE_LIMITS, [
]);
addons_available_for = array2d(ADDONS, PLANS, [
]);
addons_depends_on = array2d(ADDONS, ADDONS, [
]);
